encoding rcpsp/j90.sm/j9035_5.sm nv: 513252 nc: 1187331 enctime: 15.19
encoding rcpsp/j90.sm/j9035_5.sm nv: 101124 nc: 230451 enctime: 1.11
c File: j9035_5.smnaive.wcnf
c optimal
c final solution cost: 103
c CPU time: 3.003904
s OPTIMUM FOUND

c File: j9035_5.sm.wcnf
c optimal
c final solution cost: 103
c CPU time: 0.239587
s OPTIMUM FOUND


encoding rcpsp/j90.sm/j9035_6.sm nv: 501228 nc: 1111111 enctime: 12.55
encoding rcpsp/j90.sm/j9035_6.sm nv: 77922 nc: 169627 enctime: 1.17
c File: j9035_6.smnaive.wcnf
c optimal
c final solution cost: 72
c CPU time: 2.715701
s OPTIMUM FOUND

c File: j9035_6.sm.wcnf
c optimal
c final solution cost: 72
c CPU time: 0.180782
s OPTIMUM FOUND


encoding rcpsp/j90.sm/j9035_7.sm nv: 434250 nc: 960556 enctime: 10.93
encoding rcpsp/j90.sm/j9035_7.sm nv: 76235 nc: 165874 enctime: 1.09
c File: j9035_7.smnaive.wcnf
c optimal
c final solution cost: 78
c CPU time: 2.349685
s OPTIMUM FOUND

c File: j9035_7.sm.wcnf
c optimal
c final solution cost: 78
c CPU time: 0.178174
s OPTIMUM FOUND


encoding rcpsp/j90.sm/j9035_8.sm nv: 493136 nc: 1092179 enctime: 12.30
encoding rcpsp/j90.sm/j9035_8.sm nv: 89096 nc: 194399 enctime: 1.30
c File: j9035_8.smnaive.wcnf
c optimal
c final solution cost: 85
c CPU time: 2.518547
s OPTIMUM FOUND

c File: j9035_8.sm.wcnf
c optimal
c final solution cost: 85
c CPU time: 0.214006
s OPTIMUM FOUND


encoding rcpsp/j90.sm/j9035_9.sm nv: 476844 nc: 1052335 enctime: 12.10
encoding rcpsp/j90.sm/j9035_9.sm nv: 78468 nc: 170047 enctime: 1.15
c File: j9035_9.smnaive.wcnf
c optimal
c final solution cost: 76
c CPU time: 2.627480
s OPTIMUM FOUND

c File: j9035_9.sm.wcnf
c optimal
c final solution cost: 76
c CPU time: 0.171122
s OPTIMUM FOUND


encoding rcpsp/j90.sm/j903_5.sm nv: 687659 nc: 1471305 enctime: 13.99
encoding rcpsp/j90.sm/j903_5.sm nv: 102676 nc: 216471 enctime: 1.02
c File: j903_5.smnaive.wcnf
c optimal
c final solution cost: 75
c CPU time: 2.741572
s OPTIMUM FOUND

c File: j903_5.sm.wcnf
c optimal
c final solution cost: 75
c CPU time: 0.206058
s OPTIMUM FOUND


encoding rcpsp/j90.sm/j9036_10.sm nv: 594868 nc: 1313689 enctime: 14.77
encoding rcpsp/j90.sm/j9036_10.sm nv: 128810 nc: 281277 enctime: 1.80
c File: j9036_10.smnaive.wcnf
c optimal
c final solution cost: 109
c CPU time: 2.897200
s OPTIMUM FOUND

c File: j9036_10.sm.wcnf
c optimal
c final solution cost: 109
c CPU time: 0.270546
s OPTIMUM FOUND


encoding rcpsp/j90.sm/j9036_1.sm nv: 493188 nc: 1065556 enctime: 11.28
encoding rcpsp/j90.sm/j9036_1.sm nv: 110348 nc: 235956 enctime: 1.51
c File: j9036_1.smnaive.wcnf
c optimal
c final solution cost: 97
c CPU time: 2.297128
s OPTIMUM FOUND

c File: j9036_1.sm.wcnf
c optimal
c final solution cost: 97
c CPU time: 0.231648
s OPTIMUM FOUND


encoding rcpsp/j90.sm/j9036_2.sm nv: 529830 nc: 1204076 enctime: 14.65
encoding rcpsp/j90.sm/j9036_2.sm nv: 116725 nc: 261871 enctime: 1.76
c File: j9036_2.smnaive.wcnf
c optimal
c final solution cost: 114
c CPU time: 2.907891
s OPTIMUM FOUND

c File: j9036_2.sm.wcnf
c optimal
c final solution cost: 114
c CPU time: 0.259406
s OPTIMUM FOUND


encoding rcpsp/j90.sm/j9036_3.sm nv: 656370 nc: 1433066 enctime: 15.79
encoding rcpsp/j90.sm/j9036_3.sm nv: 109395 nc: 235416 enctime: 1.55
c File: j9036_3.smnaive.wcnf
c optimal
c final solution cost: 84
c CPU time: 3.043247
s OPTIMUM FOUND

c File: j9036_3.sm.wcnf
c optimal
c final solution cost: 84
c CPU time: 0.213565
s OPTIMUM FOUND


encoding rcpsp/j90.sm/j9036_4.sm nv: 548948 nc: 1187942 enctime: 12.86
encoding rcpsp/j90.sm/j9036_4.sm nv: 94240 nc: 200940 enctime: 1.30
c File: j9036_4.smnaive.wcnf
c optimal
c final solution cost: 79
c CPU time: 2.547950
s OPTIMUM FOUND

c File: j9036_4.sm.wcnf
c optimal
c final solution cost: 79
c CPU time: 0.182691
s OPTIMUM FOUND


encoding rcpsp/j90.sm/j9036_5.sm nv: 590336 nc: 1308710 enctime: 14.82
encoding rcpsp/j90.sm/j9036_5.sm nv: 114147 nc: 249778 enctime: 1.66
c File: j9036_5.smnaive.wcnf
c optimal
c final solution cost: 98
c CPU time: 2.946303
s OPTIMUM FOUND

c File: j9036_5.sm.wcnf
c optimal
c final solution cost: 98
c CPU time: 0.232659
s OPTIMUM FOUND


encoding rcpsp/j90.sm/j9036_6.sm nv: 623570 nc: 1345847 enctime: 14.94
encoding rcpsp/j90.sm/j9036_6.sm nv: 127000 nc: 270988 enctime: 1.32
c File: j9036_6.smnaive.wcnf
c optimal
c final solution cost: 99
c CPU time: 2.860245
s OPTIMUM FOUND

c File: j9036_6.sm.wcnf
c optimal
c final solution cost: 99
c CPU time: 0.257701
s OPTIMUM FOUND


encoding rcpsp/j90.sm/j9036_7.sm nv: 571206 nc: 1261874 enctime: 14.28
encoding rcpsp/j90.sm/j9036_7.sm nv: 103230 nc: 224738 enctime: 1.48
c File: j9036_7.smnaive.wcnf
c optimal
c final solution cost: 89
c CPU time: 2.850844
s OPTIMUM FOUND

c File: j9036_7.sm.wcnf
c optimal
c final solution cost: 89
c CPU time: 0.206048
s OPTIMUM FOUND


encoding rcpsp/j90.sm/j9036_8.sm nv: 606528 nc: 1308205 enctime: 13.91
encoding rcpsp/j90.sm/j9036_8.sm nv: 110160 nc: 234656 enctime: 1.51
c File: j9036_8.smnaive.wcnf
c optimal
c final solution cost: 84
c CPU time: 2.706154
s OPTIMUM FOUND

c File: j9036_8.sm.wcnf
c optimal
c final solution cost: 84
c CPU time: 0.214983
s OPTIMUM FOUND


encoding rcpsp/j90.sm/j9036_9.sm nv: 633920 nc: 1430034 enctime: 16.97
encoding rcpsp/j90.sm/j9036_9.sm nv: 116596 nc: 259200 enctime: 1.74
c File: j9036_9.smnaive.wcnf
c optimal
c final solution cost: 102
c CPU time: 3.459928
s OPTIMUM FOUND

c File: j9036_9.sm.wcnf
c optimal
c final solution cost: 102
c CPU time: 0.253962
s OPTIMUM FOUND


encoding rcpsp/j90.sm/j903_6.sm nv: 502320 nc: 1075163 enctime: 10.11
encoding rcpsp/j90.sm/j903_6.sm nv: 75348 nc: 158659 enctime: 1.02
c File: j903_6.smnaive.wcnf
c optimal
c final solution cost: 68
c CPU time: 2.287726
s OPTIMUM FOUND

c File: j903_6.sm.wcnf
c optimal
c final solution cost: 68
c CPU time: 0.152909
s OPTIMUM FOUND


encoding rcpsp/j90.sm/j9037_10.sm nv: 902272 nc: 1961386 enctime: 19.95
encoding rcpsp/j90.sm/j9037_10.sm nv: 237440 nc: 512946 enctime: 3.19
c File: j9037_10.smnaive.wcnf
c timeout
c final solution cost: 124
c CPU time: 63.268018
s UNKNOWN

c File: j9037_10.sm.wcnf
c timeout
c final solution cost: 130
c CPU time: 60.463947
s UNKNOWN


encoding rcpsp/j90.sm/j9037_1.sm nv: 980720 nc: 2105366 enctime: 20.22
encoding rcpsp/j90.sm/j9037_1.sm nv: 250838 nc: 535307 enctime: 3.26
c File: j9037_1.smnaive.wcnf
c timeout
c final solution cost: 116
c CPU time: 63.168998
s UNKNOWN

c File: j9037_1.sm.wcnf
c timeout
c final solution cost: 113
c CPU time: 60.461350
s UNKNOWN


encoding rcpsp/j90.sm/j9037_2.sm nv: 890500 nc: 1909426 enctime: 18.59
encoding rcpsp/j90.sm/j9037_2.sm nv: 240435 nc: 512571 enctime: 3.09
c File: j9037_2.smnaive.wcnf
c timeout
c final solution cost: 120
c CPU time: 62.896698
s UNKNOWN

c File: j9037_2.sm.wcnf
c timeout
c final solution cost: 119
c CPU time: 60.443489
s UNKNOWN


encoding rcpsp/j90.sm/j9037_3.sm nv: 779475 nc: 1674434 enctime: 16.44
encoding rcpsp/j90.sm/j9037_3.sm nv: 257637 nc: 550940 enctime: 3.37
c File: j9037_3.smnaive.wcnf
c timeout
c final solution cost: 134
c CPU time: 62.661060
s UNKNOWN

c File: j9037_3.sm.wcnf
c timeout
c final solution cost: 133
c CPU time: 60.508669
s UNKNOWN


encoding rcpsp/j90.sm/j9037_4.sm nv: 845894 nc: 1835727 enctime: 18.62
encoding rcpsp/j90.sm/j9037_4.sm nv: 244950 nc: 528591 enctime: 3.88
c File: j9037_4.smnaive.wcnf
c timeout
c final solution cost: 135
c CPU time: 63.084043
s UNKNOWN

c File: j9037_4.sm.wcnf
c timeout
c final solution cost: 129
c CPU time: 60.490711
s UNKNOWN


j90
1000
0
rcpsp/heur_output_log_0/heurj90.txt
encoding rcpsp/j90.sm/j9037_5.sm nv: 771210 nc: 1672151 enctime: 17.32
encoding rcpsp/j90.sm/j9037_5.sm nv: 249280 nc: 537841 enctime: 3.36
c File: j9037_5.smnaive.wcnf
c timeout
c final solution cost: 130
c CPU time: 62.837179
s UNKNOWN

c File: j9037_5.sm.wcnf
c timeout
c final solution cost: 133
c CPU time: 60.520122
s UNKNOWN


j90
1000
0
rcpsp/heur_output_log_0/heurj90.txt
encoding rcpsp/j90.sm/j9037_6.sm nv: 952590 nc: 2085913 enctime: 22.17
encoding rcpsp/j90.sm/j9037_6.sm nv: 272895 nc: 594193 enctime: 3.72
c File: j9037_6.smnaive.wcnf
c timeout
c final solution cost: 137
c CPU time: 63.464309
s UNKNOWN

c File: j9037_6.sm.wcnf
c timeout
c final solution cost: 140
c CPU time: 60.555776
s UNKNOWN


j90
1000
0
rcpsp/heur_output_log_0/heurj90.txt
encoding rcpsp/j90.sm/j9037_7.sm nv: 793638 nc: 1708401 enctime: 17.04
encoding rcpsp/j90.sm/j9037_7.sm nv: 244950 nc: 524673 enctime: 3.89
c File: j9037_7.smnaive.wcnf
c timeout
c final solution cost: 124
c CPU time: 62.866075
s UNKNOWN

c File: j9037_7.sm.wcnf
c timeout
c final solution cost: 124
c CPU time: 60.500826
s UNKNOWN


j90
1000
0
rcpsp/heur_output_log_0/heurj90.txt
encoding rcpsp/j90.sm/j9037_8.sm nv: 893944 nc: 1937175 enctime: 19.47
encoding rcpsp/j90.sm/j9037_8.sm nv: 237134 nc: 510750 enctime: 3.73
c File: j9037_8.smnaive.wcnf
c timeout
c final solution cost: 123
c CPU time: 63.107961
s UNKNOWN

c File: j9037_8.sm.wcnf
c timeout
c final solution cost: 122
c CPU time: 60.455542
s UNKNOWN


j90
1000
0
rcpsp/heur_output_log_0/heurj90.txt
encoding rcpsp/j90.sm/j9037_9.sm nv: 754929 nc: 1627339 enctime: 16.44
encoding rcpsp/j90.sm/j9037_9.sm nv: 231324 nc: 496044 enctime: 3.07
c File: j9037_9.smnaive.wcnf
c timeout
c final solution cost: 124
c CPU time: 62.872302
s UNKNOWN

c File: j9037_9.sm.wcnf
c timeout
c final solution cost: 128
c CPU time: 60.479230
s UNKNOWN


j90
1000
0
rcpsp/heur_output_log_0/heurj90.txt
encoding rcpsp/j90.sm/j903_7.sm nv: 428230 nc: 925954 enctime: 9.67
encoding rcpsp/j90.sm/j903_7.sm nv: 82280 nc: 175224 enctime: 0.85
c File: j903_7.smnaive.wcnf
c optimal
c final solution cost: 87
c CPU time: 2.028023
s OPTIMUM FOUND

c File: j903_7.sm.wcnf
c optimal
c final solution cost: 87
c CPU time: 0.184671
s OPTIMUM FOUND


j90
1000
0
rcpsp/heur_output_log_0/heurj90.txt
encoding rcpsp/j90.sm/j9038_10.sm nv: 1237021 nc: 2588433 enctime: 24.17
encoding rcpsp/j90.sm/j9038_10.sm nv: 282606 nc: 588358 enctime: 3.68
c File: j9038_10.smnaive.wcnf
c optimal
c final solution cost: 108
c CPU time: 5.253447
s OPTIMUM FOUND

c File: j9038_10.sm.wcnf
c optimal
c final solution cost: 108
c CPU time: 0.694414
s OPTIMUM FOUND


j90
1000
0
rcpsp/heur_output_log_0/heurj90.txt
encoding rcpsp/j90.sm/j9038_1.sm nv: 1357056 nc: 2822190 enctime: 25.94
encoding rcpsp/j90.sm/j9038_1.sm nv: 248976 nc: 514500 enctime: 3.31
c File: j9038_1.smnaive.wcnf
c optimal
c final solution cost: 85
c CPU time: 12.362401
s OPTIMUM FOUND

c File: j9038_1.sm.wcnf
c optimal
c final solution cost: 85
c CPU time: 1.292523
s OPTIMUM FOUND


j90
1000
0
rcpsp/heur_output_log_0/heurj90.txt
encoding rcpsp/j90.sm/j9038_2.sm nv: 1358970 nc: 2807344 enctime: 24.83
encoding rcpsp/j90.sm/j9038_2.sm nv: 241530 nc: 496048 enctime: 3.16
c File: j9038_2.smnaive.wcnf
c optimal
c final solution cost: 78
c CPU time: 5.346763
s OPTIMUM FOUND

c File: j9038_2.sm.wcnf
c optimal
c final solution cost: 78
c CPU time: 0.694530
s OPTIMUM FOUND


j90
1000
0
rcpsp/heur_output_log_0/heurj90.txt
encoding rcpsp/j90.sm/j9038_3.sm nv: 1394540 nc: 2894595 enctime: 26.36
encoding rcpsp/j90.sm/j9038_3.sm nv: 273216 nc: 564085 enctime: 3.56
c File: j9038_3.smnaive.wcnf
c optimal
c final solution cost: 89
c CPU time: 7.654882
s OPTIMUM FOUND

c File: j9038_3.sm.wcnf
c optimal
c final solution cost: 89
c CPU time: 1.314926
s OPTIMUM FOUND


j90
1000
0
rcpsp/heur_output_log_0/heurj90.txt
encoding rcpsp/j90.sm/j9038_4.sm nv: 1354197 nc: 2825949 enctime: 25.89
encoding rcpsp/j90.sm/j9038_4.sm nv: 256416 nc: 531747 enctime: 3.35
c File: j9038_4.smnaive.wcnf
c optimal
c final solution cost: 89
c CPU time: 5.617085
s OPTIMUM FOUND

c File: j9038_4.sm.wcnf
c optimal
c final solution cost: 89
c CPU time: 0.806044
s OPTIMUM FOUND


j90
1000
0
rcpsp/heur_output_log_0/heurj90.txt
encoding rcpsp/j90.sm/j9038_5.sm nv: 1308918 nc: 2745549 enctime: 25.78
encoding rcpsp/j90.sm/j9038_5.sm nv: 237068 nc: 493899 enctime: 3.18
c File: j9038_5.smnaive.wcnf
c optimal
c final solution cost: 86
c CPU time: 7.666092
s OPTIMUM FOUND

c File: j9038_5.sm.wcnf
c optimal
c final solution cost: 86
c CPU time: 1.301758
s OPTIMUM FOUND


j90
1000
0
rcpsp/heur_output_log_0/heurj90.txt
encoding rcpsp/j90.sm/j9038_6.sm nv: 1362843 nc: 2828400 enctime: 25.48
encoding rcpsp/j90.sm/j9038_6.sm nv: 267552 nc: 552144 enctime: 3.50
c File: j9038_6.smnaive.wcnf
c optimal
c final solution cost: 88
c CPU time: 7.323741
s OPTIMUM FOUND

c File: j9038_6.sm.wcnf
c optimal
c final solution cost: 88
c CPU time: 1.579096
s OPTIMUM FOUND


j90
1000
0
rcpsp/heur_output_log_0/heurj90.txt
encoding rcpsp/j90.sm/j9038_7.sm nv: 1380954 nc: 2869016 enctime: 25.99
encoding rcpsp/j90.sm/j9038_7.sm nv: 263435 nc: 544109 enctime: 3.42
c File: j9038_7.smnaive.wcnf
c optimal
c final solution cost: 85
c CPU time: 6.520177
s OPTIMUM FOUND

c File: j9038_7.sm.wcnf
c optimal
c final solution cost: 85
c CPU time: 0.734790
s OPTIMUM FOUND


j90
1000
0
rcpsp/heur_output_log_0/heurj90.txt
encoding rcpsp/j90.sm/j9038_8.sm nv: 1574720 nc: 3281286 enctime: 29.93
encoding rcpsp/j90.sm/j9038_8.sm nv: 304880 nc: 631782 enctime: 3.98
c File: j9038_8.smnaive.wcnf
c optimal
c final solution cost: 91
c CPU time: 5.890145
s OPTIMUM FOUND

c File: j9038_8.sm.wcnf
c optimal
c final solution cost: 91
c CPU time: 0.796391
s OPTIMUM FOUND


j90
1000
0
rcpsp/heur_output_log_0/heurj90.txt
encoding rcpsp/j90.sm/j9038_9.sm nv: 1376331 nc: 2895337 enctime: 27.57
encoding rcpsp/j90.sm/j9038_9.sm nv: 276804 nc: 578737 enctime: 3.68
c File: j9038_9.smnaive.wcnf
c optimal
c final solution cost: 95
c CPU time: 6.249930
s OPTIMUM FOUND

c File: j9038_9.sm.wcnf
c optimal
c final solution cost: 95
c CPU time: 0.853137
s OPTIMUM FOUND


j90
1000
0
rcpsp/heur_output_log_0/heurj90.txt
encoding rcpsp/j90.sm/j903_8.sm nv: 501486 nc: 1096427 enctime: 11.26
encoding rcpsp/j90.sm/j903_8.sm nv: 89623 nc: 192946 enctime: 1.25
c File: j903_8.smnaive.wcnf
c optimal
c final solution cost: 86
c CPU time: 2.323355
s OPTIMUM FOUND

c File: j903_8.sm.wcnf
c optimal
c final solution cost: 86
c CPU time: 0.204302
s OPTIMUM FOUND


j90
1000
0
rcpsp/heur_output_log_0/heurj90.txt
encoding rcpsp/j90.sm/j9039_10.sm nv: 1652510 nc: 3416471 enctime: 29.82
encoding rcpsp/j90.sm/j9039_10.sm nv: 327930 nc: 674611 enctime: 4.18
c File: j9039_10.smnaive.wcnf
c optimal
c final solution cost: 100
c CPU time: 5.950330
s OPTIMUM FOUND

c File: j9039_10.sm.wcnf
c optimal
c final solution cost: 100
c CPU time: 0.865395
s OPTIMUM FOUND


